
Gurobi 11.0.1 (win64) logging started Wed May 15 14:47:24 2024

Set parameter LogFile to value "output/solver_log3.txt"
Gurobi Optimizer version 11.0.1 build v11.0.1rc0 (win64 - Windows 11.0 (22631.2))

CPU model: 11th Gen Intel(R) Core(TM) i7-1165G7 @ 2.80GHz, instruction set [SSE2|AVX|AVX2|AVX512]
Thread count: 4 physical cores, 8 logical processors, using up to 8 threads

Optimize a model with 2926 rows, 768 columns and 56146 nonzeros
Model fingerprint: 0x6587b36d
Variable types: 248 continuous, 520 integer (520 binary)
Coefficient statistics:
  Matrix range     [4e-01, 1e+05]
  Objective range  [1e+00, 1e+02]
  Bounds range     [1e+00, 1e+00]
  RHS range        [1e-02, 1e+05]

User MIP start produced solution with objective 39728.8 (0.01s)
User MIP start produced solution with objective 39728.8 (0.01s)
Loaded user MIP start with objective 39728.8

Presolve removed 334 rows and 270 columns
Presolve time: 0.06s
Presolved: 2592 rows, 498 columns, 51347 nonzeros
Variable types: 235 continuous, 263 integer (259 binary)

Root relaxation: objective 5.039681e+04, 1964 iterations, 0.17 seconds (0.33 work units)

    Nodes    |    Current Node    |     Objective Bounds      |     Work
 Expl Unexpl |  Obj  Depth IntInf | Incumbent    BestBd   Gap | It/Node Time

     0     0 50396.8140    0   36 39728.7554 50396.8140  26.9%     -    0s
     0     0 50158.9007    0   65 39728.7554 50158.9007  26.3%     -    0s
     0     0 49523.0515    0   62 39728.7554 49523.0515  24.7%     -    0s
     0     0 49522.4546    0   58 39728.7554 49522.4546  24.7%     -    0s
     0     0 49148.6354    0   60 39728.7554 49148.6354  23.7%     -    0s
     0     0 48772.1577    0   54 39728.7554 48772.1577  22.8%     -    1s
     0     0 48772.1577    0   54 39728.7554 48772.1577  22.8%     -    1s
     0     0 47991.8757    0   65 39728.7554 47991.8757  20.8%     -    1s
     0     0 47991.8757    0   69 39728.7554 47991.8757  20.8%     -    1s
     0     0 47991.8757    0   68 39728.7554 47991.8757  20.8%     -    1s
     0     0 47991.8757    0   73 39728.7554 47991.8757  20.8%     -    1s
     0     0 47939.7839    0   71 39728.7554 47939.7839  20.7%     -    1s
     0     0 47624.2997    0   68 39728.7554 47624.2997  19.9%     -    1s
     0     0 47624.2997    0   69 39728.7554 47624.2997  19.9%     -    1s
     0     0 47623.8129    0   47 39728.7554 47623.8129  19.9%     -    1s
     0     0 47623.8129    0   46 39728.7554 47623.8129  19.9%     -    2s
     0     0 47623.8129    0   50 39728.7554 47623.8129  19.9%     -    2s
     0     0 46491.6058    0   52 39728.7554 46491.6058  17.0%     -    2s
     0     0 46491.6058    0   47 39728.7554 46491.6058  17.0%     -    2s
     0     0 46490.4277    0   66 39728.7554 46490.4277  17.0%     -    2s
     0     0 46490.4277    0   68 39728.7554 46490.4277  17.0%     -    2s
     0     0 46490.4277    0   68 39728.7554 46490.4277  17.0%     -    2s
     0     0 46490.4277    0   66 39728.7554 46490.4277  17.0%     -    2s
     0     2 46490.4277    0   66 39728.7554 46490.4277  17.0%     -    2s
   221   178 39755.8769   45   36 39728.7554 42763.4855  7.64%   210    5s
H  450   355                    39730.007529 42763.4855  7.64%   128    5s
H  583   457                    39739.647705 42763.4855  7.61%   110    7s
  1679  1075 39741.2286  354    2 39739.6477 39756.1559  0.04%  62.9   11s
H 2003  1075                    39739.651197 39756.1559  0.04%  52.7   11s
H 2006  1072                    39740.467697 39756.1559  0.04%  52.7   11s
H 2170  1376                    39740.796004 39756.1559  0.04%  50.8   12s
  2894  1651 39756.1559   16   69 39740.7960 39756.1559  0.04%  47.4   15s
  3498  2072 infeasible  103      39740.7960 39755.2745  0.04%  53.6   20s
H 6591  1454                    39744.331979 39755.2743  0.03%  43.2   24s
  6784  1452     cutoff   92      39744.3320 39755.2743  0.03%  42.8   25s
H 8515  1537                    39744.436537 39755.2705  0.03%  42.5   30s
H 8516  1381                    39745.589167 39755.2705  0.02%  42.5   30s
 10734  2481 39753.4530   51   58 39745.5892 39755.2669  0.02%  42.1   35s
 14117  3497 infeasible   52      39745.5892 39755.2668  0.02%  41.2   40s
 17730  4585 39752.8906   50   52 39745.5892 39755.2633  0.02%  40.7   45s
 20399  5627 39746.6620   64   38 39745.5892 39755.2596  0.02%  40.9   50s
*23101  6431              81    39745.677921 39755.2595  0.02%  40.3   54s
 23629  6877 39746.6058   67   30 39745.6779 39755.2595  0.02%  40.4   55s
 26796  7805 39749.3146   67   31 39745.6779 39755.2595  0.02%  39.5   60s

Cutting planes:
  Implied bound: 1
  MIR: 17

Explored 27242 nodes (1085308 simplex iterations) in 60.02 seconds (141.90 work units)
Thread count was 8 (of 8 available processors)

Solution count 10: 39745.7 39745.6 39744.4 ... 39728.8

Time limit reached
Best objective 3.974567792081e+04, best bound 3.975525945236e+04, gap 0.0241%
